NAME : A-n37-k6.581073.tour
COMMENT : Length = 581073
COMMENT : Found by LKH [Keld Helsgaun] Sun Dec 17 18:35:43 2017
TYPE : TOUR
DIMENSION : 42
TOUR_SECTION
1
14
31
16
33
40
7
21
2
34
10
22
3
29
41
17
26
36
28
39
25
8
5
18
35
32
20
38
15
19
27
11
12
13
23
24
42
30
37
9
4
6
-1
EOF
